outputs/case_321.model.txt
net_worth = 1000000
own_capital = 100000000
net_worth_ratio_prev1 = 5/2
net_worth_ratio_prev2 = 5/2
risk_capital = 50000000
capital_insufficient = True
capital_severely_insufficient = False
capital_level = 0
capital_significantly_insufficient = False
capital_adequate = False
penalty = False
/0 = [else -> 2]